167 300 76 97 73 91 29 62 70 65 20 66 53 60 80 14 21 9 52 89 7 90 37 67 51 8 59 29 17 44 12 43 10 88 39 34 30 20 95 51 36 67 16 88 26 96 53 47 56 4 87 62 45 75 80 95 82 91 23 51 34 87 93 43 26 84 76 55 3 23 5 38 89 72 25 14 67 77 12 22 32 99 36 29 25 15 75 59 5 50 9 90 36 1 32 61 84 60 67 86 82 23 75 22 94 51 35 61 79 47 34 11 97 69 91 73 36 65 31 92 14 91 82 1 92 65 61 27 24 79 65 57 1 39 30 95 90 65 7 20 63 40 82 11 61 72 83 48 37 66 39 2 56 72 3 99 37 15 26 12 94 42 21 94 80 50 88 21 14 